NAME : mr42
COMMENT : 42-city problem (DISC)
TYPE : TSP
DIMENSION : 42
EDGE_WEIGHT_TYPE : EUC_2D
NODE_COORD_SECTION
1 38 4
2 96 91
3 74 26
4 60 67
5 16 32
6 16 53
7 6 55
8 87 19
9 61 97
10 71 78
11 3 94
12 97 90
13 84 60
14 22 93
15 19 9
16 19 20
17 31 5
18 53 33
19 44 39
20 30 28
21 62 83
22 14 36
23 30 29
24 37 55
25 46 15
26 79 81
27 20 8
28 52 99
29 60 78
30 5 20
31 61 1
32 18 82
33 7 71
34 95 73
35 97 78
36 81 8
37 31 36
38 10 12
39 69 87
40 45 63
41 13 34
42 50 7
EOF
